(set-info :category "industrial")
(set-info :status sat)
(declare-fun x00 () (_ BitVec 8))
(declare-fun x03 () (_ BitVec 8))
(declare-fun x05 () (_ BitVec 8))
(declare-fun x07 () (_ BitVec 8))
(declare-fun x08 () (_ BitVec 8))
(declare-fun x10 () (_ BitVec 8))
(declare-fun x11 () (_ BitVec 8))
(declare-fun x12 () (_ BitVec 8))
(declare-fun x14 () (_ BitVec 8))
(declare-fun x15 () (_ BitVec 8))
(declare-fun x16 () (_ BitVec 8))
(declare-fun x17 () (_ BitVec 8))
(declare-fun x21 () (_ BitVec 8))
(declare-fun x22 () (_ BitVec 8))
(declare-fun x23 () (_ BitVec 8))
(declare-fun x25 () (_ BitVec 8))
(declare-fun x26 () (_ BitVec 8))
(declare-fun x30 () (_ BitVec 8))
(declare-fun x32 () (_ BitVec 8))
(declare-fun x33 () (_ BitVec 8))
(declare-fun x35 () (_ BitVec 8))
(declare-fun x38 () (_ BitVec 8))
(declare-fun x40 () (_ BitVec 8))
(declare-fun x44 () (_ BitVec 8))
(declare-fun x45 () (_ BitVec 8))
(declare-fun x46 () (_ BitVec 8))
(declare-fun x51 () (_ BitVec 8))
(declare-fun x53 () (_ BitVec 8))
(declare-fun x54 () (_ BitVec 8))
(declare-fun x56 () (_ BitVec 8))
(declare-fun x60 () (_ BitVec 8))
(declare-fun x62 () (_ BitVec 8))
(declare-fun x64 () (_ BitVec 8))
(declare-fun x65 () (_ BitVec 8))
(declare-fun x67 () (_ BitVec 8))
(declare-fun x68 () (_ BitVec 8))
(declare-fun x70 () (_ BitVec 8))
(declare-fun x71 () (_ BitVec 8))
(declare-fun x74 () (_ BitVec 8))
(declare-fun x76 () (_ BitVec 8))
(declare-fun x77 () (_ BitVec 8))
(declare-fun x78 () (_ BitVec 8))
(declare-fun x80 () (_ BitVec 8))
(declare-fun x82 () (_ BitVec 8))
(declare-fun x85 () (_ BitVec 8))
(declare-fun x86 () (_ BitVec 8))
(assert (bvult x00 (_ bv9 8)))
(assert (bvult x03 (_ bv9 8)))
(assert (bvult x05 (_ bv9 8)))
(assert (bvult x07 (_ bv9 8)))
(assert (bvult x08 (_ bv9 8)))
(assert (bvult x10 (_ bv9 8)))
(assert (bvult x11 (_ bv9 8)))
(assert (bvult x12 (_ bv9 8)))
(assert (bvult x14 (_ bv9 8)))
(assert (bvult x15 (_ bv9 8)))
(assert (bvult x16 (_ bv9 8)))
(assert (bvult x17 (_ bv9 8)))
(assert (bvult x21 (_ bv9 8)))
(assert (bvult x22 (_ bv9 8)))
(assert (bvult x23 (_ bv9 8)))
(assert (bvult x25 (_ bv9 8)))
(assert (bvult x26 (_ bv9 8)))
(assert (bvult x30 (_ bv9 8)))
(assert (bvult x32 (_ bv9 8)))
(assert (bvult x33 (_ bv9 8)))
(assert (bvult x35 (_ bv9 8)))
(assert (bvult x38 (_ bv9 8)))
(assert (bvult x40 (_ bv9 8)))
(assert (bvult x44 (_ bv9 8)))
(assert (bvult x45 (_ bv9 8)))
(assert (bvult x46 (_ bv9 8)))
(assert (bvult x51 (_ bv9 8)))
(assert (bvult x53 (_ bv9 8)))
(assert (bvult x54 (_ bv9 8)))
(assert (bvult x56 (_ bv9 8)))
(assert (bvult x60 (_ bv9 8)))
(assert (bvult x62 (_ bv9 8)))
(assert (bvult x64 (_ bv9 8)))
(assert (bvult x65 (_ bv9 8)))
(assert (bvult x67 (_ bv9 8)))
(assert (bvult x68 (_ bv9 8)))
(assert (bvult x70 (_ bv9 8)))
(assert (bvult x71 (_ bv9 8)))
(assert (bvult x74 (_ bv9 8)))
(assert (bvult x76 (_ bv9 8)))
(assert (bvult x77 (_ bv9 8)))
(assert (bvult x78 (_ bv9 8)))
(assert (bvult x80 (_ bv9 8)))
(assert (bvult x82 (_ bv9 8)))
(assert (bvult x85 (_ bv9 8)))
(assert (bvult x86 (_ bv9 8)))
(assert (not (= x00 (_ bv9 8))))
(assert (not (= x00 (_ bv2 8))))
(assert (not (= x00 x03)))
(assert (not (= x00 (_ bv3 8))))
(assert (not (= x00 x05)))
(assert (not (= x00 (_ bv5 8))))
(assert (not (= x00 x07)))
(assert (not (= x00 x08)))
(assert (not (= (_ bv9 8) (_ bv2 8))))
(assert (not (= (_ bv9 8) x03)))
(assert (not (= (_ bv9 8) (_ bv3 8))))
(assert (not (= (_ bv9 8) x05)))
(assert (not (= (_ bv9 8) (_ bv5 8))))
(assert (not (= (_ bv9 8) x07)))
(assert (not (= (_ bv9 8) x08)))
(assert (not (= (_ bv2 8) x03)))
(assert (not (= (_ bv2 8) (_ bv3 8))))
(assert (not (= (_ bv2 8) x05)))
(assert (not (= (_ bv2 8) (_ bv5 8))))
(assert (not (= (_ bv2 8) x07)))
(assert (not (= (_ bv2 8) x08)))
(assert (not (= x03 (_ bv3 8))))
(assert (not (= x03 x05)))
(assert (not (= x03 (_ bv5 8))))
(assert (not (= x03 x07)))
(assert (not (= x03 x08)))
(assert (not (= (_ bv3 8) x05)))
(assert (not (= (_ bv3 8) (_ bv5 8))))
(assert (not (= (_ bv3 8) x07)))
(assert (not (= (_ bv3 8) x08)))
(assert (not (= x05 (_ bv5 8))))
(assert (not (= x05 x07)))
(assert (not (= x05 x08)))
(assert (not (= (_ bv5 8) x07)))
(assert (not (= (_ bv5 8) x08)))
(assert (not (= x07 x08)))
(assert (not (= x10 x11)))
(assert (not (= x10 x12)))
(assert (not (= x10 (_ bv2 8))))
(assert (not (= x10 x14)))
(assert (not (= x10 x15)))
(assert (not (= x10 x16)))
(assert (not (= x10 x17)))
(assert (not (= x10 (_ bv9 8))))
(assert (not (= x11 x12)))
(assert (not (= x11 (_ bv2 8))))
(assert (not (= x11 x14)))
(assert (not (= x11 x15)))
(assert (not (= x11 x16)))
(assert (not (= x11 x17)))
(assert (not (= x11 (_ bv9 8))))
(assert (not (= x12 (_ bv2 8))))
(assert (not (= x12 x14)))
(assert (not (= x12 x15)))
(assert (not (= x12 x16)))
(assert (not (= x12 x17)))
(assert (not (= x12 (_ bv9 8))))
(assert (not (= (_ bv2 8) x14)))
(assert (not (= (_ bv2 8) x15)))
(assert (not (= (_ bv2 8) x16)))
(assert (not (= (_ bv2 8) x17)))
(assert (not (= (_ bv2 8) (_ bv9 8))))
(assert (not (= x14 x15)))
(assert (not (= x14 x16)))
(assert (not (= x14 x17)))
(assert (not (= x14 (_ bv9 8))))
(assert (not (= x15 x16)))
(assert (not (= x15 x17)))
(assert (not (= x15 (_ bv9 8))))
(assert (not (= x16 x17)))
(assert (not (= x16 (_ bv9 8))))
(assert (not (= x17 (_ bv9 8))))
(assert (not (= (_ bv8 8) x21)))
(assert (not (= (_ bv8 8) x22)))
(assert (not (= (_ bv8 8) x23)))
(assert (not (= (_ bv8 8) (_ bv7 8))))
(assert (not (= (_ bv8 8) x25)))
(assert (not (= (_ bv8 8) x26)))
(assert (not (= (_ bv8 8) (_ bv4 8))))
(assert (not (= (_ bv8 8) (_ bv6 8))))
(assert (not (= x21 x22)))
(assert (not (= x21 x23)))
(assert (not (= x21 (_ bv7 8))))
(assert (not (= x21 x25)))
(assert (not (= x21 x26)))
(assert (not (= x21 (_ bv4 8))))
(assert (not (= x21 (_ bv6 8))))
(assert (not (= x22 x23)))
(assert (not (= x22 (_ bv7 8))))
(assert (not (= x22 x25)))
(assert (not (= x22 x26)))
(assert (not (= x22 (_ bv4 8))))
(assert (not (= x22 (_ bv6 8))))
(assert (not (= x23 (_ bv7 8))))
(assert (not (= x23 x25)))
(assert (not (= x23 x26)))
(assert (not (= x23 (_ bv4 8))))
(assert (not (= x23 (_ bv6 8))))
(assert (not (= (_ bv7 8) x25)))
(assert (not (= (_ bv7 8) x26)))
(assert (not (= (_ bv7 8) (_ bv4 8))))
(assert (not (= (_ bv7 8) (_ bv6 8))))
(assert (not (= x25 x26)))
(assert (not (= x25 (_ bv4 8))))
(assert (not (= x25 (_ bv6 8))))
(assert (not (= x26 (_ bv4 8))))
(assert (not (= x26 (_ bv6 8))))
(assert (not (= (_ bv4 8) (_ bv6 8))))
(assert (not (= x30 (_ bv1 8))))
(assert (not (= x30 x32)))
(assert (not (= x30 x33)))
(assert (not (= x30 (_ bv6 8))))
(assert (not (= x30 x35)))
(assert (not (= x30 (_ bv4 8))))
(assert (not (= x30 (_ bv8 8))))
(assert (not (= x30 x38)))
(assert (not (= (_ bv1 8) x32)))
(assert (not (= (_ bv1 8) x33)))
(assert (not (= (_ bv1 8) (_ bv6 8))))
(assert (not (= (_ bv1 8) x35)))
(assert (not (= (_ bv1 8) (_ bv4 8))))
(assert (not (= (_ bv1 8) (_ bv8 8))))
(assert (not (= (_ bv1 8) x38)))
(assert (not (= x32 x33)))
(assert (not (= x32 (_ bv6 8))))
(assert (not (= x32 x35)))
(assert (not (= x32 (_ bv4 8))))
(assert (not (= x32 (_ bv8 8))))
(assert (not (= x32 x38)))
(assert (not (= x33 (_ bv6 8))))
(assert (not (= x33 x35)))
(assert (not (= x33 (_ bv4 8))))
(assert (not (= x33 (_ bv8 8))))
(assert (not (= x33 x38)))
(assert (not (= (_ bv6 8) x35)))
(assert (not (= (_ bv6 8) (_ bv4 8))))
(assert (not (= (_ bv6 8) (_ bv8 8))))
(assert (not (= (_ bv6 8) x38)))
(assert (not (= x35 (_ bv4 8))))
(assert (not (= x35 (_ bv8 8))))
(assert (not (= x35 x38)))
(assert (not (= (_ bv4 8) (_ bv8 8))))
(assert (not (= (_ bv4 8) x38)))
(assert (not (= (_ bv8 8) x38)))
(assert (not (= x40 (_ bv3 8))))
(assert (not (= x40 (_ bv8 8))))
(assert (not (= x40 (_ bv4 8))))
(assert (not (= x40 x44)))
(assert (not (= x40 x45)))
(assert (not (= x40 x46)))
(assert (not (= x40 (_ bv2 8))))
(assert (not (= x40 (_ bv5 8))))
(assert (not (= (_ bv3 8) (_ bv8 8))))
(assert (not (= (_ bv3 8) (_ bv4 8))))
(assert (not (= (_ bv3 8) x44)))
(assert (not (= (_ bv3 8) x45)))
(assert (not (= (_ bv3 8) x46)))
(assert (not (= (_ bv3 8) (_ bv2 8))))
(assert (not (= (_ bv3 8) (_ bv5 8))))
(assert (not (= (_ bv8 8) (_ bv4 8))))
(assert (not (= (_ bv8 8) x44)))
(assert (not (= (_ bv8 8) x45)))
(assert (not (= (_ bv8 8) x46)))
(assert (not (= (_ bv8 8) (_ bv2 8))))
(assert (not (= (_ bv8 8) (_ bv5 8))))
(assert (not (= (_ bv4 8) x44)))
(assert (not (= (_ bv4 8) x45)))
(assert (not (= (_ bv4 8) x46)))
(assert (not (= (_ bv4 8) (_ bv2 8))))
(assert (not (= (_ bv4 8) (_ bv5 8))))
(assert (not (= x44 x45)))
(assert (not (= x44 x46)))
(assert (not (= x44 (_ bv2 8))))
(assert (not (= x44 (_ bv5 8))))
(assert (not (= x45 x46)))
(assert (not (= x45 (_ bv2 8))))
(assert (not (= x45 (_ bv5 8))))
(assert (not (= x46 (_ bv2 8))))
(assert (not (= x46 (_ bv5 8))))
(assert (not (= (_ bv2 8) (_ bv5 8))))
(assert (not (= (_ bv7 8) x51)))
(assert (not (= (_ bv7 8) (_ bv5 8))))
(assert (not (= (_ bv7 8) x53)))
(assert (not (= (_ bv7 8) x54)))
(assert (not (= (_ bv7 8) (_ bv1 8))))
(assert (not (= (_ bv7 8) x56)))
(assert (not (= (_ bv7 8) (_ bv6 8))))
(assert (not (= (_ bv7 8) (_ bv3 8))))
(assert (not (= x51 (_ bv5 8))))
(assert (not (= x51 x53)))
(assert (not (= x51 x54)))
(assert (not (= x51 (_ bv1 8))))
(assert (not (= x51 x56)))
(assert (not (= x51 (_ bv6 8))))
(assert (not (= x51 (_ bv3 8))))
(assert (not (= (_ bv5 8) x53)))
(assert (not (= (_ bv5 8) x54)))
(assert (not (= (_ bv5 8) (_ bv1 8))))
(assert (not (= (_ bv5 8) x56)))
(assert (not (= (_ bv5 8) (_ bv6 8))))
(assert (not (= (_ bv5 8) (_ bv3 8))))
(assert (not (= x53 x54)))
(assert (not (= x53 (_ bv1 8))))
(assert (not (= x53 x56)))
(assert (not (= x53 (_ bv6 8))))
(assert (not (= x53 (_ bv3 8))))
(assert (not (= x54 (_ bv1 8))))
(assert (not (= x54 x56)))
(assert (not (= x54 (_ bv6 8))))
(assert (not (= x54 (_ bv3 8))))
(assert (not (= (_ bv1 8) x56)))
(assert (not (= (_ bv1 8) (_ bv6 8))))
(assert (not (= (_ bv1 8) (_ bv3 8))))
(assert (not (= x56 (_ bv6 8))))
(assert (not (= x56 (_ bv3 8))))
(assert (not (= (_ bv6 8) (_ bv3 8))))
(assert (not (= x60 (_ bv7 8))))
(assert (not (= x60 x62)))
(assert (not (= x60 (_ bv9 8))))
(assert (not (= x60 x64)))
(assert (not (= x60 x65)))
(assert (not (= x60 (_ bv3 8))))
(assert (not (= x60 x67)))
(assert (not (= x60 x68)))
(assert (not (= (_ bv7 8) x62)))
(assert (not (= (_ bv7 8) (_ bv9 8))))
(assert (not (= (_ bv7 8) x64)))
(assert (not (= (_ bv7 8) x65)))
(assert (not (= (_ bv7 8) (_ bv3 8))))
(assert (not (= (_ bv7 8) x67)))
(assert (not (= (_ bv7 8) x68)))
(assert (not (= x62 (_ bv9 8))))
(assert (not (= x62 x64)))
(assert (not (= x62 x65)))
(assert (not (= x62 (_ bv3 8))))
(assert (not (= x62 x67)))
(assert (not (= x62 x68)))
(assert (not (= (_ bv9 8) x64)))
(assert (not (= (_ bv9 8) x65)))
(assert (not (= (_ bv9 8) (_ bv3 8))))
(assert (not (= (_ bv9 8) x67)))
(assert (not (= (_ bv9 8) x68)))
(assert (not (= x64 x65)))
(assert (not (= x64 (_ bv3 8))))
(assert (not (= x64 x67)))
(assert (not (= x64 x68)))
(assert (not (= x65 (_ bv3 8))))
(assert (not (= x65 x67)))
(assert (not (= x65 x68)))
(assert (not (= (_ bv3 8) x67)))
(assert (not (= (_ bv3 8) x68)))
(assert (not (= x67 x68)))
(assert (not (= x70 x71)))
(assert (not (= x70 (_ bv4 8))))
(assert (not (= x70 (_ bv5 8))))
(assert (not (= x70 x74)))
(assert (not (= x70 (_ bv6 8))))
(assert (not (= x70 x76)))
(assert (not (= x70 x77)))
(assert (not (= x70 x78)))
(assert (not (= x71 (_ bv4 8))))
(assert (not (= x71 (_ bv5 8))))
(assert (not (= x71 x74)))
(assert (not (= x71 (_ bv6 8))))
(assert (not (= x71 x76)))
(assert (not (= x71 x77)))
(assert (not (= x71 x78)))
(assert (not (= (_ bv4 8) (_ bv5 8))))
(assert (not (= (_ bv4 8) x74)))
(assert (not (= (_ bv4 8) (_ bv6 8))))
(assert (not (= (_ bv4 8) x76)))
(assert (not (= (_ bv4 8) x77)))
(assert (not (= (_ bv4 8) x78)))
(assert (not (= (_ bv5 8) x74)))
(assert (not (= (_ bv5 8) (_ bv6 8))))
(assert (not (= (_ bv5 8) x76)))
(assert (not (= (_ bv5 8) x77)))
(assert (not (= (_ bv5 8) x78)))
(assert (not (= x74 (_ bv6 8))))
(assert (not (= x74 x76)))
(assert (not (= x74 x77)))
(assert (not (= x74 x78)))
(assert (not (= (_ bv6 8) x76)))
(assert (not (= (_ bv6 8) x77)))
(assert (not (= (_ bv6 8) x78)))
(assert (not (= x76 x77)))
(assert (not (= x76 x78)))
(assert (not (= x77 x78)))
(assert (not (= x80 (_ bv2 8))))
(assert (not (= x80 x82)))
(assert (not (= x80 (_ bv7 8))))
(assert (not (= x80 (_ bv4 8))))
(assert (not (= x80 x85)))
(assert (not (= x80 x86)))
(assert (not (= x80 (_ bv5 8))))
(assert (not (= x80 (_ bv8 8))))
(assert (not (= (_ bv2 8) x82)))
(assert (not (= (_ bv2 8) (_ bv7 8))))
(assert (not (= (_ bv2 8) (_ bv4 8))))
(assert (not (= (_ bv2 8) x85)))
(assert (not (= (_ bv2 8) x86)))
(assert (not (= (_ bv2 8) (_ bv5 8))))
(assert (not (= (_ bv2 8) (_ bv8 8))))
(assert (not (= x82 (_ bv7 8))))
(assert (not (= x82 (_ bv4 8))))
(assert (not (= x82 x85)))
(assert (not (= x82 x86)))
(assert (not (= x82 (_ bv5 8))))
(assert (not (= x82 (_ bv8 8))))
(assert (not (= (_ bv7 8) (_ bv4 8))))
(assert (not (= (_ bv7 8) x85)))
(assert (not (= (_ bv7 8) x86)))
(assert (not (= (_ bv7 8) (_ bv5 8))))
(assert (not (= (_ bv7 8) (_ bv8 8))))
(assert (not (= (_ bv4 8) x85)))
(assert (not (= (_ bv4 8) x86)))
(assert (not (= (_ bv4 8) (_ bv5 8))))
(assert (not (= (_ bv4 8) (_ bv8 8))))
(assert (not (= x85 x86)))
(assert (not (= x85 (_ bv5 8))))
(assert (not (= x85 (_ bv8 8))))
(assert (not (= x86 (_ bv5 8))))
(assert (not (= x86 (_ bv8 8))))
(assert (not (= (_ bv5 8) (_ bv8 8))))
(assert (not (= x00 x10)))
(assert (not (= x00 (_ bv8 8))))
(assert (not (= x00 x30)))
(assert (not (= x00 x40)))
(assert (not (= x00 (_ bv7 8))))
(assert (not (= x00 x60)))
(assert (not (= x00 x70)))
(assert (not (= x00 x80)))
(assert (not (= x10 (_ bv8 8))))
(assert (not (= x10 x30)))
(assert (not (= x10 x40)))
(assert (not (= x10 (_ bv7 8))))
(assert (not (= x10 x60)))
(assert (not (= x10 x70)))
(assert (not (= x10 x80)))
(assert (not (= (_ bv8 8) x30)))
(assert (not (= (_ bv8 8) x40)))
(assert (not (= (_ bv8 8) (_ bv7 8))))
(assert (not (= (_ bv8 8) x60)))
(assert (not (= (_ bv8 8) x70)))
(assert (not (= (_ bv8 8) x80)))
(assert (not (= x30 x40)))
(assert (not (= x30 (_ bv7 8))))
(assert (not (= x30 x60)))
(assert (not (= x30 x70)))
(assert (not (= x30 x80)))
(assert (not (= x40 (_ bv7 8))))
(assert (not (= x40 x60)))
(assert (not (= x40 x70)))
(assert (not (= x40 x80)))
(assert (not (= (_ bv7 8) x60)))
(assert (not (= (_ bv7 8) x70)))
(assert (not (= (_ bv7 8) x80)))
(assert (not (= x60 x70)))
(assert (not (= x60 x80)))
(assert (not (= x70 x80)))
(assert (not (= (_ bv9 8) x11)))
(assert (not (= (_ bv9 8) x21)))
(assert (not (= (_ bv9 8) (_ bv1 8))))
(assert (not (= (_ bv9 8) (_ bv3 8))))
(assert (not (= (_ bv9 8) x51)))
(assert (not (= (_ bv9 8) (_ bv7 8))))
(assert (not (= (_ bv9 8) x71)))
(assert (not (= (_ bv9 8) (_ bv2 8))))
(assert (not (= x11 x21)))
(assert (not (= x11 (_ bv1 8))))
(assert (not (= x11 (_ bv3 8))))
(assert (not (= x11 x51)))
(assert (not (= x11 (_ bv7 8))))
(assert (not (= x11 x71)))
(assert (not (= x11 (_ bv2 8))))
(assert (not (= x21 (_ bv1 8))))
(assert (not (= x21 (_ bv3 8))))
(assert (not (= x21 x51)))
(assert (not (= x21 (_ bv7 8))))
(assert (not (= x21 x71)))
(assert (not (= x21 (_ bv2 8))))
(assert (not (= (_ bv1 8) (_ bv3 8))))
(assert (not (= (_ bv1 8) x51)))
(assert (not (= (_ bv1 8) (_ bv7 8))))
(assert (not (= (_ bv1 8) x71)))
(assert (not (= (_ bv1 8) (_ bv2 8))))
(assert (not (= (_ bv3 8) x51)))
(assert (not (= (_ bv3 8) (_ bv7 8))))
(assert (not (= (_ bv3 8) x71)))
(assert (not (= (_ bv3 8) (_ bv2 8))))
(assert (not (= x51 (_ bv7 8))))
(assert (not (= x51 x71)))
(assert (not (= x51 (_ bv2 8))))
(assert (not (= (_ bv7 8) x71)))
(assert (not (= (_ bv7 8) (_ bv2 8))))
(assert (not (= x71 (_ bv2 8))))
(assert (not (= (_ bv2 8) x12)))
(assert (not (= (_ bv2 8) x22)))
(assert (not (= (_ bv2 8) x32)))
(assert (not (= (_ bv2 8) (_ bv8 8))))
(assert (not (= (_ bv2 8) (_ bv5 8))))
(assert (not (= (_ bv2 8) x62)))
(assert (not (= (_ bv2 8) (_ bv4 8))))
(assert (not (= (_ bv2 8) x82)))
(assert (not (= x12 x22)))
(assert (not (= x12 x32)))
(assert (not (= x12 (_ bv8 8))))
(assert (not (= x12 (_ bv5 8))))
(assert (not (= x12 x62)))
(assert (not (= x12 (_ bv4 8))))
(assert (not (= x12 x82)))
(assert (not (= x22 x32)))
(assert (not (= x22 (_ bv8 8))))
(assert (not (= x22 (_ bv5 8))))
(assert (not (= x22 x62)))
(assert (not (= x22 (_ bv4 8))))
(assert (not (= x22 x82)))
(assert (not (= x32 (_ bv8 8))))
(assert (not (= x32 (_ bv5 8))))
(assert (not (= x32 x62)))
(assert (not (= x32 (_ bv4 8))))
(assert (not (= x32 x82)))
(assert (not (= (_ bv8 8) (_ bv5 8))))
(assert (not (= (_ bv8 8) x62)))
(assert (not (= (_ bv8 8) (_ bv4 8))))
(assert (not (= (_ bv8 8) x82)))
(assert (not (= (_ bv5 8) x62)))
(assert (not (= (_ bv5 8) (_ bv4 8))))
(assert (not (= (_ bv5 8) x82)))
(assert (not (= x62 (_ bv4 8))))
(assert (not (= x62 x82)))
(assert (not (= (_ bv4 8) x82)))
(assert (not (= x03 (_ bv2 8))))
(assert (not (= x03 x23)))
(assert (not (= x03 x33)))
(assert (not (= x03 (_ bv4 8))))
(assert (not (= x03 x53)))
(assert (not (= x03 (_ bv9 8))))
(assert (not (= x03 (_ bv5 8))))
(assert (not (= x03 (_ bv7 8))))
(assert (not (= (_ bv2 8) x23)))
(assert (not (= (_ bv2 8) x33)))
(assert (not (= (_ bv2 8) (_ bv4 8))))
(assert (not (= (_ bv2 8) x53)))
(assert (not (= (_ bv2 8) (_ bv9 8))))
(assert (not (= (_ bv2 8) (_ bv5 8))))
(assert (not (= (_ bv2 8) (_ bv7 8))))
(assert (not (= x23 x33)))
(assert (not (= x23 (_ bv4 8))))
(assert (not (= x23 x53)))
(assert (not (= x23 (_ bv9 8))))
(assert (not (= x23 (_ bv5 8))))
(assert (not (= x23 (_ bv7 8))))
(assert (not (= x33 (_ bv4 8))))
(assert (not (= x33 x53)))
(assert (not (= x33 (_ bv9 8))))
(assert (not (= x33 (_ bv5 8))))
(assert (not (= x33 (_ bv7 8))))
(assert (not (= (_ bv4 8) x53)))
(assert (not (= (_ bv4 8) (_ bv9 8))))
(assert (not (= (_ bv4 8) (_ bv5 8))))
(assert (not (= (_ bv4 8) (_ bv7 8))))
(assert (not (= x53 (_ bv9 8))))
(assert (not (= x53 (_ bv5 8))))
(assert (not (= x53 (_ bv7 8))))
(assert (not (= (_ bv9 8) (_ bv5 8))))
(assert (not (= (_ bv9 8) (_ bv7 8))))
(assert (not (= (_ bv5 8) (_ bv7 8))))
(assert (not (= (_ bv3 8) x14)))
(assert (not (= (_ bv3 8) (_ bv7 8))))
(assert (not (= (_ bv3 8) (_ bv6 8))))
(assert (not (= (_ bv3 8) x44)))
(assert (not (= (_ bv3 8) x54)))
(assert (not (= (_ bv3 8) x64)))
(assert (not (= (_ bv3 8) x74)))
(assert (not (= (_ bv3 8) (_ bv4 8))))
(assert (not (= x14 (_ bv7 8))))
(assert (not (= x14 (_ bv6 8))))
(assert (not (= x14 x44)))
(assert (not (= x14 x54)))
(assert (not (= x14 x64)))
(assert (not (= x14 x74)))
(assert (not (= x14 (_ bv4 8))))
(assert (not (= (_ bv7 8) (_ bv6 8))))
(assert (not (= (_ bv7 8) x44)))
(assert (not (= (_ bv7 8) x54)))
(assert (not (= (_ bv7 8) x64)))
(assert (not (= (_ bv7 8) x74)))
(assert (not (= (_ bv7 8) (_ bv4 8))))
(assert (not (= (_ bv6 8) x44)))
(assert (not (= (_ bv6 8) x54)))
(assert (not (= (_ bv6 8) x64)))
(assert (not (= (_ bv6 8) x74)))
(assert (not (= (_ bv6 8) (_ bv4 8))))
(assert (not (= x44 x54)))
(assert (not (= x44 x64)))
(assert (not (= x44 x74)))
(assert (not (= x44 (_ bv4 8))))
(assert (not (= x54 x64)))
(assert (not (= x54 x74)))
(assert (not (= x54 (_ bv4 8))))
(assert (not (= x64 x74)))
(assert (not (= x64 (_ bv4 8))))
(assert (not (= x74 (_ bv4 8))))
(assert (not (= x05 x15)))
(assert (not (= x05 x25)))
(assert (not (= x05 x35)))
(assert (not (= x05 x45)))
(assert (not (= x05 (_ bv1 8))))
(assert (not (= x05 x65)))
(assert (not (= x05 (_ bv6 8))))
(assert (not (= x05 x85)))
(assert (not (= x15 x25)))
(assert (not (= x15 x35)))
(assert (not (= x15 x45)))
(assert (not (= x15 (_ bv1 8))))
(assert (not (= x15 x65)))
(assert (not (= x15 (_ bv6 8))))
(assert (not (= x15 x85)))
(assert (not (= x25 x35)))
(assert (not (= x25 x45)))
(assert (not (= x25 (_ bv1 8))))
(assert (not (= x25 x65)))
(assert (not (= x25 (_ bv6 8))))
(assert (not (= x25 x85)))
(assert (not (= x35 x45)))
(assert (not (= x35 (_ bv1 8))))
(assert (not (= x35 x65)))
(assert (not (= x35 (_ bv6 8))))
(assert (not (= x35 x85)))
(assert (not (= x45 (_ bv1 8))))
(assert (not (= x45 x65)))
(assert (not (= x45 (_ bv6 8))))
(assert (not (= x45 x85)))
(assert (not (= (_ bv1 8) x65)))
(assert (not (= (_ bv1 8) (_ bv6 8))))
(assert (not (= (_ bv1 8) x85)))
(assert (not (= x65 (_ bv6 8))))
(assert (not (= x65 x85)))
(assert (not (= (_ bv6 8) x85)))
(assert (not (= (_ bv5 8) x16)))
(assert (not (= (_ bv5 8) x26)))
(assert (not (= (_ bv5 8) (_ bv4 8))))
(assert (not (= (_ bv5 8) x46)))
(assert (not (= (_ bv5 8) x56)))
(assert (not (= (_ bv5 8) (_ bv3 8))))
(assert (not (= (_ bv5 8) x76)))
(assert (not (= (_ bv5 8) x86)))
(assert (not (= x16 x26)))
(assert (not (= x16 (_ bv4 8))))
(assert (not (= x16 x46)))
(assert (not (= x16 x56)))
(assert (not (= x16 (_ bv3 8))))
(assert (not (= x16 x76)))
(assert (not (= x16 x86)))
(assert (not (= x26 (_ bv4 8))))
(assert (not (= x26 x46)))
(assert (not (= x26 x56)))
(assert (not (= x26 (_ bv3 8))))
(assert (not (= x26 x76)))
(assert (not (= x26 x86)))
(assert (not (= (_ bv4 8) x46)))
(assert (not (= (_ bv4 8) x56)))
(assert (not (= (_ bv4 8) (_ bv3 8))))
(assert (not (= (_ bv4 8) x76)))
(assert (not (= (_ bv4 8) x86)))
(assert (not (= x46 x56)))
(assert (not (= x46 (_ bv3 8))))
(assert (not (= x46 x76)))
(assert (not (= x46 x86)))
(assert (not (= x56 (_ bv3 8))))
(assert (not (= x56 x76)))
(assert (not (= x56 x86)))
(assert (not (= (_ bv3 8) x76)))
(assert (not (= (_ bv3 8) x86)))
(assert (not (= x76 x86)))
(assert (not (= x07 x17)))
(assert (not (= x07 (_ bv4 8))))
(assert (not (= x07 (_ bv8 8))))
(assert (not (= x07 (_ bv2 8))))
(assert (not (= x07 (_ bv6 8))))
(assert (not (= x07 x67)))
(assert (not (= x07 x77)))
(assert (not (= x07 (_ bv5 8))))
(assert (not (= x17 (_ bv4 8))))
(assert (not (= x17 (_ bv8 8))))
(assert (not (= x17 (_ bv2 8))))
(assert (not (= x17 (_ bv6 8))))
(assert (not (= x17 x67)))
(assert (not (= x17 x77)))
(assert (not (= x17 (_ bv5 8))))
(assert (not (= (_ bv4 8) (_ bv8 8))))
(assert (not (= (_ bv4 8) (_ bv2 8))))
(assert (not (= (_ bv4 8) (_ bv6 8))))
(assert (not (= (_ bv4 8) x67)))
(assert (not (= (_ bv4 8) x77)))
(assert (not (= (_ bv4 8) (_ bv5 8))))
(assert (not (= (_ bv8 8) (_ bv2 8))))
(assert (not (= (_ bv8 8) (_ bv6 8))))
(assert (not (= (_ bv8 8) x67)))
(assert (not (= (_ bv8 8) x77)))
(assert (not (= (_ bv8 8) (_ bv5 8))))
(assert (not (= (_ bv2 8) (_ bv6 8))))
(assert (not (= (_ bv2 8) x67)))
(assert (not (= (_ bv2 8) x77)))
(assert (not (= (_ bv2 8) (_ bv5 8))))
(assert (not (= (_ bv6 8) x67)))
(assert (not (= (_ bv6 8) x77)))
(assert (not (= (_ bv6 8) (_ bv5 8))))
(assert (not (= x67 x77)))
(assert (not (= x67 (_ bv5 8))))
(assert (not (= x77 (_ bv5 8))))
(assert (not (= x08 (_ bv9 8))))
(assert (not (= x08 (_ bv6 8))))
(assert (not (= x08 x38)))
(assert (not (= x08 (_ bv5 8))))
(assert (not (= x08 (_ bv3 8))))
(assert (not (= x08 x68)))
(assert (not (= x08 x78)))
(assert (not (= x08 (_ bv8 8))))
(assert (not (= (_ bv9 8) (_ bv6 8))))
(assert (not (= (_ bv9 8) x38)))
(assert (not (= (_ bv9 8) (_ bv5 8))))
(assert (not (= (_ bv9 8) (_ bv3 8))))
(assert (not (= (_ bv9 8) x68)))
(assert (not (= (_ bv9 8) x78)))
(assert (not (= (_ bv9 8) (_ bv8 8))))
(assert (not (= (_ bv6 8) x38)))
(assert (not (= (_ bv6 8) (_ bv5 8))))
(assert (not (= (_ bv6 8) (_ bv3 8))))
(assert (not (= (_ bv6 8) x68)))
(assert (not (= (_ bv6 8) x78)))
(assert (not (= (_ bv6 8) (_ bv8 8))))
(assert (not (= x38 (_ bv5 8))))
(assert (not (= x38 (_ bv3 8))))
(assert (not (= x38 x68)))
(assert (not (= x38 x78)))
(assert (not (= x38 (_ bv8 8))))
(assert (not (= (_ bv5 8) (_ bv3 8))))
(assert (not (= (_ bv5 8) x68)))
(assert (not (= (_ bv5 8) x78)))
(assert (not (= (_ bv5 8) (_ bv8 8))))
(assert (not (= (_ bv3 8) x68)))
(assert (not (= (_ bv3 8) x78)))
(assert (not (= (_ bv3 8) (_ bv8 8))))
(assert (not (= x68 x78)))
(assert (not (= x68 (_ bv8 8))))
(assert (not (= x78 (_ bv8 8))))
(assert (not (= x00 (_ bv9 8))))
(assert (not (= x00 (_ bv2 8))))
(assert (not (= x00 x10)))
(assert (not (= x00 x11)))
(assert (not (= x00 x12)))
(assert (not (= x00 (_ bv8 8))))
(assert (not (= x00 x21)))
(assert (not (= x00 x22)))
(assert (not (= (_ bv9 8) (_ bv2 8))))
(assert (not (= (_ bv9 8) x10)))
(assert (not (= (_ bv9 8) x11)))
(assert (not (= (_ bv9 8) x12)))
(assert (not (= (_ bv9 8) (_ bv8 8))))
(assert (not (= (_ bv9 8) x21)))
(assert (not (= (_ bv9 8) x22)))
(assert (not (= (_ bv2 8) x10)))
(assert (not (= (_ bv2 8) x11)))
(assert (not (= (_ bv2 8) x12)))
(assert (not (= (_ bv2 8) (_ bv8 8))))
(assert (not (= (_ bv2 8) x21)))
(assert (not (= (_ bv2 8) x22)))
(assert (not (= x10 x11)))
(assert (not (= x10 x12)))
(assert (not (= x10 (_ bv8 8))))
(assert (not (= x10 x21)))
(assert (not (= x10 x22)))
(assert (not (= x11 x12)))
(assert (not (= x11 (_ bv8 8))))
(assert (not (= x11 x21)))
(assert (not (= x11 x22)))
(assert (not (= x12 (_ bv8 8))))
(assert (not (= x12 x21)))
(assert (not (= x12 x22)))
(assert (not (= (_ bv8 8) x21)))
(assert (not (= (_ bv8 8) x22)))
(assert (not (= x21 x22)))
(assert (not (= x03 (_ bv3 8))))
(assert (not (= x03 x05)))
(assert (not (= x03 (_ bv2 8))))
(assert (not (= x03 x14)))
(assert (not (= x03 x15)))
(assert (not (= x03 x23)))
(assert (not (= x03 (_ bv7 8))))
(assert (not (= x03 x25)))
(assert (not (= (_ bv3 8) x05)))
(assert (not (= (_ bv3 8) (_ bv2 8))))
(assert (not (= (_ bv3 8) x14)))
(assert (not (= (_ bv3 8) x15)))
(assert (not (= (_ bv3 8) x23)))
(assert (not (= (_ bv3 8) (_ bv7 8))))
(assert (not (= (_ bv3 8) x25)))
(assert (not (= x05 (_ bv2 8))))
(assert (not (= x05 x14)))
(assert (not (= x05 x15)))
(assert (not (= x05 x23)))
(assert (not (= x05 (_ bv7 8))))
(assert (not (= x05 x25)))
(assert (not (= (_ bv2 8) x14)))
(assert (not (= (_ bv2 8) x15)))
(assert (not (= (_ bv2 8) x23)))
(assert (not (= (_ bv2 8) (_ bv7 8))))
(assert (not (= (_ bv2 8) x25)))
(assert (not (= x14 x15)))
(assert (not (= x14 x23)))
(assert (not (= x14 (_ bv7 8))))
(assert (not (= x14 x25)))
(assert (not (= x15 x23)))
(assert (not (= x15 (_ bv7 8))))
(assert (not (= x15 x25)))
(assert (not (= x23 (_ bv7 8))))
(assert (not (= x23 x25)))
(assert (not (= (_ bv7 8) x25)))
(assert (not (= (_ bv5 8) x07)))
(assert (not (= (_ bv5 8) x08)))
(assert (not (= (_ bv5 8) x16)))
(assert (not (= (_ bv5 8) x17)))
(assert (not (= (_ bv5 8) (_ bv9 8))))
(assert (not (= (_ bv5 8) x26)))
(assert (not (= (_ bv5 8) (_ bv4 8))))
(assert (not (= (_ bv5 8) (_ bv6 8))))
(assert (not (= x07 x08)))
(assert (not (= x07 x16)))
(assert (not (= x07 x17)))
(assert (not (= x07 (_ bv9 8))))
(assert (not (= x07 x26)))
(assert (not (= x07 (_ bv4 8))))
(assert (not (= x07 (_ bv6 8))))
(assert (not (= x08 x16)))
(assert (not (= x08 x17)))
(assert (not (= x08 (_ bv9 8))))
(assert (not (= x08 x26)))
(assert (not (= x08 (_ bv4 8))))
(assert (not (= x08 (_ bv6 8))))
(assert (not (= x16 x17)))
(assert (not (= x16 (_ bv9 8))))
(assert (not (= x16 x26)))
(assert (not (= x16 (_ bv4 8))))
(assert (not (= x16 (_ bv6 8))))
(assert (not (= x17 (_ bv9 8))))
(assert (not (= x17 x26)))
(assert (not (= x17 (_ bv4 8))))
(assert (not (= x17 (_ bv6 8))))
(assert (not (= (_ bv9 8) x26)))
(assert (not (= (_ bv9 8) (_ bv4 8))))
(assert (not (= (_ bv9 8) (_ bv6 8))))
(assert (not (= x26 (_ bv4 8))))
(assert (not (= x26 (_ bv6 8))))
(assert (not (= (_ bv4 8) (_ bv6 8))))
(assert (not (= x30 (_ bv1 8))))
(assert (not (= x30 x32)))
(assert (not (= x30 x40)))
(assert (not (= x30 (_ bv3 8))))
(assert (not (= x30 (_ bv8 8))))
(assert (not (= x30 (_ bv7 8))))
(assert (not (= x30 x51)))
(assert (not (= x30 (_ bv5 8))))
(assert (not (= (_ bv1 8) x32)))
(assert (not (= (_ bv1 8) x40)))
(assert (not (= (_ bv1 8) (_ bv3 8))))
(assert (not (= (_ bv1 8) (_ bv8 8))))
(assert (not (= (_ bv1 8) (_ bv7 8))))
(assert (not (= (_ bv1 8) x51)))
(assert (not (= (_ bv1 8) (_ bv5 8))))
(assert (not (= x32 x40)))
(assert (not (= x32 (_ bv3 8))))
(assert (not (= x32 (_ bv8 8))))
(assert (not (= x32 (_ bv7 8))))
(assert (not (= x32 x51)))
(assert (not (= x32 (_ bv5 8))))
(assert (not (= x40 (_ bv3 8))))
(assert (not (= x40 (_ bv8 8))))
(assert (not (= x40 (_ bv7 8))))
(assert (not (= x40 x51)))
(assert (not (= x40 (_ bv5 8))))
(assert (not (= (_ bv3 8) (_ bv8 8))))
(assert (not (= (_ bv3 8) (_ bv7 8))))
(assert (not (= (_ bv3 8) x51)))
(assert (not (= (_ bv3 8) (_ bv5 8))))
(assert (not (= (_ bv8 8) (_ bv7 8))))
(assert (not (= (_ bv8 8) x51)))
(assert (not (= (_ bv8 8) (_ bv5 8))))
(assert (not (= (_ bv7 8) x51)))
(assert (not (= (_ bv7 8) (_ bv5 8))))
(assert (not (= x51 (_ bv5 8))))
(assert (not (= x33 (_ bv6 8))))
(assert (not (= x33 x35)))
(assert (not (= x33 (_ bv4 8))))
(assert (not (= x33 x44)))
(assert (not (= x33 x45)))
(assert (not (= x33 x53)))
(assert (not (= x33 x54)))
(assert (not (= x33 (_ bv1 8))))
(assert (not (= (_ bv6 8) x35)))
(assert (not (= (_ bv6 8) (_ bv4 8))))
(assert (not (= (_ bv6 8) x44)))
(assert (not (= (_ bv6 8) x45)))
(assert (not (= (_ bv6 8) x53)))
(assert (not (= (_ bv6 8) x54)))
(assert (not (= (_ bv6 8) (_ bv1 8))))
(assert (not (= x35 (_ bv4 8))))
(assert (not (= x35 x44)))
(assert (not (= x35 x45)))
(assert (not (= x35 x53)))
(assert (not (= x35 x54)))
(assert (not (= x35 (_ bv1 8))))
(assert (not (= (_ bv4 8) x44)))
(assert (not (= (_ bv4 8) x45)))
(assert (not (= (_ bv4 8) x53)))
(assert (not (= (_ bv4 8) x54)))
(assert (not (= (_ bv4 8) (_ bv1 8))))
(assert (not (= x44 x45)))
(assert (not (= x44 x53)))
(assert (not (= x44 x54)))
(assert (not (= x44 (_ bv1 8))))
(assert (not (= x45 x53)))
(assert (not (= x45 x54)))
(assert (not (= x45 (_ bv1 8))))
(assert (not (= x53 x54)))
(assert (not (= x53 (_ bv1 8))))
(assert (not (= x54 (_ bv1 8))))
(assert (not (= (_ bv4 8) (_ bv8 8))))
(assert (not (= (_ bv4 8) x38)))
(assert (not (= (_ bv4 8) x46)))
(assert (not (= (_ bv4 8) (_ bv2 8))))
(assert (not (= (_ bv4 8) (_ bv5 8))))
(assert (not (= (_ bv4 8) x56)))
(assert (not (= (_ bv4 8) (_ bv6 8))))
(assert (not (= (_ bv4 8) (_ bv3 8))))
(assert (not (= (_ bv8 8) x38)))
(assert (not (= (_ bv8 8) x46)))
(assert (not (= (_ bv8 8) (_ bv2 8))))
(assert (not (= (_ bv8 8) (_ bv5 8))))
(assert (not (= (_ bv8 8) x56)))
(assert (not (= (_ bv8 8) (_ bv6 8))))
(assert (not (= (_ bv8 8) (_ bv3 8))))
(assert (not (= x38 x46)))
(assert (not (= x38 (_ bv2 8))))
(assert (not (= x38 (_ bv5 8))))
(assert (not (= x38 x56)))
(assert (not (= x38 (_ bv6 8))))
(assert (not (= x38 (_ bv3 8))))
(assert (not (= x46 (_ bv2 8))))
(assert (not (= x46 (_ bv5 8))))
(assert (not (= x46 x56)))
(assert (not (= x46 (_ bv6 8))))
(assert (not (= x46 (_ bv3 8))))
(assert (not (= (_ bv2 8) (_ bv5 8))))
(assert (not (= (_ bv2 8) x56)))
(assert (not (= (_ bv2 8) (_ bv6 8))))
(assert (not (= (_ bv2 8) (_ bv3 8))))
(assert (not (= (_ bv5 8) x56)))
(assert (not (= (_ bv5 8) (_ bv6 8))))
(assert (not (= (_ bv5 8) (_ bv3 8))))
(assert (not (= x56 (_ bv6 8))))
(assert (not (= x56 (_ bv3 8))))
(assert (not (= (_ bv6 8) (_ bv3 8))))
(assert (not (= x60 (_ bv7 8))))
(assert (not (= x60 x62)))
(assert (not (= x60 x70)))
(assert (not (= x60 x71)))
(assert (not (= x60 (_ bv4 8))))
(assert (not (= x60 x80)))
(assert (not (= x60 (_ bv2 8))))
(assert (not (= x60 x82)))
(assert (not (= (_ bv7 8) x62)))
(assert (not (= (_ bv7 8) x70)))
(assert (not (= (_ bv7 8) x71)))
(assert (not (= (_ bv7 8) (_ bv4 8))))
(assert (not (= (_ bv7 8) x80)))
(assert (not (= (_ bv7 8) (_ bv2 8))))
(assert (not (= (_ bv7 8) x82)))
(assert (not (= x62 x70)))
(assert (not (= x62 x71)))
(assert (not (= x62 (_ bv4 8))))
(assert (not (= x62 x80)))
(assert (not (= x62 (_ bv2 8))))
(assert (not (= x62 x82)))
(assert (not (= x70 x71)))
(assert (not (= x70 (_ bv4 8))))
(assert (not (= x70 x80)))
(assert (not (= x70 (_ bv2 8))))
(assert (not (= x70 x82)))
(assert (not (= x71 (_ bv4 8))))
(assert (not (= x71 x80)))
(assert (not (= x71 (_ bv2 8))))
(assert (not (= x71 x82)))
(assert (not (= (_ bv4 8) x80)))
(assert (not (= (_ bv4 8) (_ bv2 8))))
(assert (not (= (_ bv4 8) x82)))
(assert (not (= x80 (_ bv2 8))))
(assert (not (= x80 x82)))
(assert (not (= (_ bv2 8) x82)))
(assert (not (= (_ bv9 8) x64)))
(assert (not (= (_ bv9 8) x65)))
(assert (not (= (_ bv9 8) (_ bv5 8))))
(assert (not (= (_ bv9 8) x74)))
(assert (not (= (_ bv9 8) (_ bv6 8))))
(assert (not (= (_ bv9 8) (_ bv7 8))))
(assert (not (= (_ bv9 8) (_ bv4 8))))
(assert (not (= (_ bv9 8) x85)))
(assert (not (= x64 x65)))
(assert (not (= x64 (_ bv5 8))))
(assert (not (= x64 x74)))
(assert (not (= x64 (_ bv6 8))))
(assert (not (= x64 (_ bv7 8))))
(assert (not (= x64 (_ bv4 8))))
(assert (not (= x64 x85)))
(assert (not (= x65 (_ bv5 8))))
(assert (not (= x65 x74)))
(assert (not (= x65 (_ bv6 8))))
(assert (not (= x65 (_ bv7 8))))
(assert (not (= x65 (_ bv4 8))))
(assert (not (= x65 x85)))
(assert (not (= (_ bv5 8) x74)))
(assert (not (= (_ bv5 8) (_ bv6 8))))
(assert (not (= (_ bv5 8) (_ bv7 8))))
(assert (not (= (_ bv5 8) (_ bv4 8))))
(assert (not (= (_ bv5 8) x85)))
(assert (not (= x74 (_ bv6 8))))
(assert (not (= x74 (_ bv7 8))))
(assert (not (= x74 (_ bv4 8))))
(assert (not (= x74 x85)))
(assert (not (= (_ bv6 8) (_ bv7 8))))
(assert (not (= (_ bv6 8) (_ bv4 8))))
(assert (not (= (_ bv6 8) x85)))
(assert (not (= (_ bv7 8) (_ bv4 8))))
(assert (not (= (_ bv7 8) x85)))
(assert (not (= (_ bv4 8) x85)))
(assert (not (= (_ bv3 8) x67)))
(assert (not (= (_ bv3 8) x68)))
(assert (not (= (_ bv3 8) x76)))
(assert (not (= (_ bv3 8) x77)))
(assert (not (= (_ bv3 8) x78)))
(assert (not (= (_ bv3 8) x86)))
(assert (not (= (_ bv3 8) (_ bv5 8))))
(assert (not (= (_ bv3 8) (_ bv8 8))))
(assert (not (= x67 x68)))
(assert (not (= x67 x76)))
(assert (not (= x67 x77)))
(assert (not (= x67 x78)))
(assert (not (= x67 x86)))
(assert (not (= x67 (_ bv5 8))))
(assert (not (= x67 (_ bv8 8))))
(assert (not (= x68 x76)))
(assert (not (= x68 x77)))
(assert (not (= x68 x78)))
(assert (not (= x68 x86)))
(assert (not (= x68 (_ bv5 8))))
(assert (not (= x68 (_ bv8 8))))
(assert (not (= x76 x77)))
(assert (not (= x76 x78)))
(assert (not (= x76 x86)))
(assert (not (= x76 (_ bv5 8))))
(assert (not (= x76 (_ bv8 8))))
(assert (not (= x77 x78)))
(assert (not (= x77 x86)))
(assert (not (= x77 (_ bv5 8))))
(assert (not (= x77 (_ bv8 8))))
(assert (not (= x78 x86)))
(assert (not (= x78 (_ bv5 8))))
(assert (not (= x78 (_ bv8 8))))
(assert (not (= x86 (_ bv5 8))))
(assert (not (= x86 (_ bv8 8))))
(assert (not (= (_ bv5 8) (_ bv8 8))))
(check-sat)
(exit)
